Version identifier: 12.10.0.0 | 2019-11-26 | 843d4de
CPXPARAM_WorkMem                                 28672
Tried aggregator 2 times.
MIP Presolve modified 28 coefficients.
Aggregator did 30 substitutions.
Reduced MIP has 134 rows, 160 columns, and 620 nonzeros.
Reduced MIP has 160 binaries, 0 generals, 0 SOSs, and 0 indicators.
Presolve time = 0,00 sec. (0,72 ticks)
Found incumbent of value 119,000000 after 0,00 sec. (1,27 ticks)
Probing time = 0,00 sec. (0,23 ticks)
Tried aggregator 1 time.
Detecting symmetries...
MIP Presolve eliminated 23 rows and 0 columns.
MIP Presolve added 46 rows and 0 columns.
Reduced MIP has 157 rows, 160 columns, and 643 nonzeros.
Reduced MIP has 160 binaries, 0 generals, 0 SOSs, and 0 indicators.
Presolve time = 0,00 sec. (0,69 ticks)
Probing time = 0,00 sec. (0,23 ticks)
Clique table members: 424.
MIP emphasis: balance optimality and feasibility.
MIP search method: dynamic search.
Parallel mode: deterministic, using up to 16 threads.
Root relaxation solution time = 0,00 sec. (0,45 ticks)

        Nodes                                         Cuts/
   Node  Left     Objective  IInf  Best Integer    Best Bound    ItCnt     Gap

*     0+    0                          119,0000        0,0000           100,00%
*     0+    0                           73,0000        0,0000           100,00%
*     0+    0                           69,0000        0,0000           100,00%
      0     0       30,0000    75       69,0000       30,0000       68   56,52%
      0     0       30,5082    75       69,0000     Cuts: 140      151   55,79%
      0     0       31,4605    75       69,0000     Cuts: 139      182   54,41%
      0     0       31,7883    75       69,0000     Cuts: 131      227   53,93%
      0     0       32,0571    75       69,0000     Cuts: 139      264   53,54%
      0     0       32,1752    75       69,0000      Cuts: 86      295   53,37%
Detecting symmetries...
      0     0       32,2539    75       69,0000      Cuts: 14      312   53,26%
      0     0       32,3775    75       69,0000      Cuts: 14      339   53,08%
      0     0       32,4313    75       69,0000       Cuts: 4      366   53,00%
      0     0       32,4430    75       69,0000   ZeroHalf: 2      376   52,98%
      0     0       32,4500    75       69,0000   ZeroHalf: 3      382   52,97%
      0     0       32,4772    75       69,0000   ZeroHalf: 2      393   52,93%
      0     0       32,4954    75       69,0000   ZeroHalf: 2      405   52,91%
      0     0       32,4984    75       69,0000       Cuts: 4      409   52,90%
      0     0       32,5091    75       69,0000   ZeroHalf: 1      423   52,89%
      0     0       32,5162    75       69,0000   ZeroHalf: 3      426   52,88%
      0     0       32,5226    75       69,0000       Cuts: 4      444   52,87%
      0     0       32,5257    75       69,0000   ZeroHalf: 2      451   52,86%
      0     0       32,5269    75       69,0000       Cuts: 4      457   52,86%
*     0+    0                           64,0000       32,5269            49,18%
Detecting symmetries...
      0     2       32,5269   159       64,0000       42,9007      457   32,97%
Elapsed time = 0,17 sec. (74,83 ticks, tree = 0,02 MB, solutions = 4)

GUB cover cuts applied:  4
Clique cuts applied:  54
Cover cuts applied:  159
Mixed integer rounding cuts applied:  52
Zero-half cuts applied:  13
Lift and project cuts applied:  1
Gomory fractional cuts applied:  8

Root node processing (before b&c):
  Real time             =    0,16 sec. (74,58 ticks)
Parallel b&c, 16 threads:
  Real time             =    0,13 sec. (87,83 ticks)
  Sync time (average)   =    0,05 sec.
  Wait time (average)   =    0,00 sec.
                          ------------
Total (root+branch&cut) =    0,30 sec. (162,41 ticks)
